c SAT Generator for power-law distributed variable frequencies
c -g u -v 20 -c 91 -k 3 -p 2.750000 -b 3.200000 -f /home/schmidt/Devel/ni-kop-sat/data/ensemble/ruf20-91/ruf20-91-614 -u 1 -U 1 -s 3864380738
p cnf 20 91
-4 -8 -16 0
-3 16 -20 0
-12 -16 -20 0
-7 14 -17 0
1 8 -15 0
4 8 15 0
1 -15 -16 0
-2 7 -10 0
-2 -7 -12 0
-10 -13 -14 0
12 15 -16 0
10 -11 -17 0
12 16 -19 0
-2 3 -5 0
-7 12 -13 0
-1 -15 -19 0
-16 -17 -18 0
1 -6 19 0
-13 17 -20 0
-3 12 -17 0
-7 -8 10 0
-5 18 19 0
-2 -8 -17 0
-3 -12 18 0
-2 -5 -20 0
1 -11 -18 0
3 7 -15 0
-1 -3 11 0
-10 -18 -20 0
8 9 13 0
1 -14 -16 0
-1 2 -6 0
-3 -6 -18 0
1 -3 -20 0
-1 5 -17 0
-7 19 20 0
7 -11 -20 0
9 -17 20 0
-5 -11 18 0
6 -8 -10 0
-12 -16 -19 0
-2 12 20 0
-6 -8 16 0
2 -17 -18 0
2 -3 -8 0
1 4 -12 0
-2 6 13 0
4 -8 17 0
11 -12 19 0
-1 5 -20 0
-9 10 11 0
-2 7 -17 0
4 6 11 0
-6 12 13 0
-6 -16 20 0
4 -5 -15 0
4 5 -8 0
4 5 -10 0
-6 -17 -18 0
-12 14 17 0
14 -16 18 0
-3 -4 -19 0
1 4 13 0
-2 -12 18 0
-9 14 20 0
-1 6 -17 0
-3 5 -13 0
3 5 16 0
1 11 17 0
-2 3 14 0
2 8 -12 0
-7 13 16 0
7 10 12 0
-5 15 -19 0
-3 -15 -17 0
-10 -11 17 0
-4 -17 -20 0
-2 18 20 0
-2 -7 -20 0
-7 -10 -14 0
5 -11 -13 0
10 -13 16 0
3 -7 18 0
-1 -4 -14 0
-3 -5 19 0
2 -6 -14 0
12 16 18 0
1 -4 6 0
5 17 20 0
-6 9 -10 0
9 -11 19 0
